Route #1: 7 28 6 27 24
Route #2: 9 16
Route #3: 2
Route #4: 26 17
Route #5: 19 21
Route #6: 15 8 31 14 30 5 25 20
Route #7: 1
Route #8: 11 4 23 29 10
Route #9: 13 3 22 18 12

Cost: 1978.4032638072533
